(set-info :smt-lib-version 2.6)
(set-logic QF_LIA)
(set-info :source |
Alberto Griggio

|)
(set-info :category "crafted")
(set-info :status unsat)
(declare-fun v0 () Int)
(declare-fun v1 () Int)
(declare-fun v2 () Int)
(declare-fun v3 () Int)
(declare-fun v4 () Int)
(declare-fun v5 () Int)
(declare-fun o_0 () Int)
(declare-fun s_2 () Int)
(declare-fun o_1 () Int)
(declare-fun s_3 () Int)
(declare-fun s_4 () Int)
(declare-fun o_2 () Int)
(declare-fun o_3 () Int)
(declare-fun o_4 () Int)
(declare-fun o_5 () Int)
(declare-fun o_6 () Int)
(declare-fun s_7 () Int)
(declare-fun o_7 () Int)
(declare-fun s_8 () Int)
(declare-fun o_8 () Int)
(declare-fun s_9 () Int)
(declare-fun o_9 () Int)
(declare-fun A_itev1 () Int)
(declare-fun A_itev2 () Int)
(declare-fun A_itev3 () Int)
(declare-fun A_itev4 () Int)
(declare-fun A_itev5 () Int)
(declare-fun A_itev6 () Int)
(declare-fun A_itev7 () Int)
(declare-fun A_itev8 () Int)
(declare-fun A_itev9 () Int)
(declare-fun A_itev10 () Int)
(assert (let ((?v_76 (+ (* v4 16) (* v5 32))) (?v_75 (* A_itev4 8)) (?v_35 (* v1 2)) (?v_21 (* v2 4)) (?v_50 (* v3 8)) (?v_70 (* A_itev4 4)) (?v_65 (* A_itev4 2)) (?v_47 (- s_4)) (?v_4 (* v5 2))) (let ((?v_49 (+ (+ (+ v4 ?v_4) ?v_47) (- s_3)))) (let ((?v_48 (+ (- o_2) ?v_49)) (?v_46 (+ ?v_47 ?v_4)) (?v_1 (<= 16 v5))) (let ((?v_41 (not ?v_1)) (?v_18 (<= 16 v2))) (let ((?v_40 (not ?v_18)) (?v_32 (<= 16 v1))) (let ((?v_39 (not ?v_32)) (?v_38 (= A_itev10 A_itev9)) (?v_37 (= (+ (- A_itev10) ?v_35) 0)) (?v_36 (<= 8 v1)) (?v_31 (+ (- A_itev9) ?v_35))) (let ((?v_34 (= ?v_31 16)) (?v_33 (= ?v_31 32)) (?v_30 (= A_itev8 A_itev7)) (?v_29 (= (+ (- A_itev8) ?v_21) 0)) (?v_28 (<= 4 v2)) (?v_27 (= A_itev7 A_itev6)) (?v_26 (= (+ (- A_itev7) ?v_21) 16)) (?v_25 (<= 8 v2)) (?v_24 (= A_itev6 A_itev5)) (?v_23 (= (+ (- A_itev6) ?v_21) 32)) (?v_22 (<= 12 v2)) (?v_17 (+ (- A_itev5) ?v_21))) (let ((?v_20 (= ?v_17 48)) (?v_19 (= ?v_17 64)) (?v_16 (= A_itev4 A_itev3)) (?v_7 (= A_itev2 A_itev1)) (?v_6 (= (+ (- A_itev2) ?v_4) 0)) (?v_5 (<= 8 v5)) (?v_0 (+ (- A_itev1) ?v_4))) (let ((?v_3 (= ?v_0 16)) (?v_2 (= ?v_0 32)) (?v_13 (+ (+ (* o_5 (- 32)) (* v4 2)) (* A_itev2 2)))) (let ((?v_8 (+ (- A_itev3) ?v_13))) (let ((?v_11 (= ?v_8 16)) (?v_12 (+ (+ (* o_5 (- 16)) v4) A_itev2))) (let ((?v_9 (<= 16 ?v_12)) (?v_10 (= ?v_8 32))) (let ((?v_59 (not ?v_9)) (?v_14 (<= 8 ?v_12)) (?v_15 (= (+ ?v_13 (- A_itev4)) 0)) (?v_53 (* o_0 (- 16)))) (let ((?v_42 (+ (+ ?v_53 v0) A_itev10)) (?v_43 (+ (* s_2 (- 2)) v3)) (?v_51 (* s_2 (- 16)))) (let ((?v_45 (+ ?v_51 ?v_50)) (?v_52 (* o_1 (- 16)))) (let ((?v_44 (+ (+ ?v_45 ?v_52) A_itev8)) (?v_55 (+ (+ (+ (+ ?v_50 v0) ?v_51) ?v_52) ?v_53)) (?v_56 (* o_3 (- 16)))) (let ((?v_54 (+ (+ (+ ?v_55 ?v_56) A_itev8) A_itev10)) (?v_77 (* s_4 (- 16))) (?v_78 (* s_3 (- 16))) (?v_79 (* o_2 (- 16)))) (let ((?v_58 (+ (+ (+ (+ (+ (+ (+ (+ (+ ?v_76 ?v_50) v0) ?v_51) ?v_52) ?v_53) ?v_56) ?v_77) ?v_78) ?v_79)) (?v_80 (* o_4 (- 16)))) (let ((?v_57 (+ (+ (+ ?v_58 ?v_80) A_itev8) A_itev10)) (?v_61 (+ (* o_6 (- 16)) v3))) (let ((?v_60 (+ ?v_61 A_itev4)) (?v_62 (+ (+ (* s_7 (- 8)) ?v_61) A_itev4)) (?v_64 (+ (+ (+ (* o_6 (- 32)) (* v3 2)) (* s_7 (- 16))) v2))) (let ((?v_66 (+ ?v_64 (* o_7 (- 16))))) (let ((?v_63 (+ ?v_66 ?v_65)) (?v_67 (+ (+ (* s_8 (- 8)) ?v_66) ?v_65)) (?v_69 (+ (+ (+ (+ (+ (+ (* o_6 (- 64)) (* v3 4)) (* s_7 (- 32))) (* v2 2)) (* o_7 (- 32))) (* s_8 (- 16))) v1))) (let ((?v_71 (+ ?v_69 (* o_8 (- 16))))) (let ((?v_68 (+ ?v_71 ?v_70)) (?v_72 (+ (+ (* s_9 (- 8)) ?v_71) ?v_70)) (?v_74 (+ (+ (+ (+ (+ (+ (+ (+ (+ (* o_6 (- 128)) ?v_50) (* s_7 (- 64))) ?v_21) (* o_7 (- 64))) (* s_8 (- 32))) ?v_35) (* o_8 (- 32))) (* s_9 (- 16))) v0))) (let ((?v_73 (+ (+ (* o_9 (- 16)) ?v_74) ?v_75))) (and (and (and (and (and (and (and (and (and (and (and (and (and (and (and (and (and (and (and (and (and (and (and (and (and (and (and (and (and (and (or ?v_2 ?v_41) (or ?v_3 ?v_1)) (or ?v_2 ?v_3)) (or ?v_5 ?v_6)) (or (not ?v_5) ?v_7)) (or ?v_6 ?v_7)) (or ?v_11 ?v_9)) (or ?v_10 ?v_59)) (or ?v_10 ?v_11)) (or ?v_14 ?v_15)) (or (not ?v_14) ?v_16)) (or ?v_15 ?v_16)) (or ?v_20 ?v_18)) (or ?v_19 ?v_40)) (or ?v_19 ?v_20)) (or ?v_22 ?v_23)) (or (not ?v_22) ?v_24)) (or ?v_23 ?v_24)) (or ?v_25 ?v_26)) (or (not ?v_25) ?v_27)) (or ?v_26 ?v_27)) (or ?v_28 ?v_29)) (or (not ?v_28) ?v_30)) (or ?v_29 ?v_30)) (or ?v_34 ?v_32)) (or ?v_33 ?v_39)) (or ?v_33 ?v_34)) (or ?v_36 ?v_37)) (or (not ?v_36) ?v_38)) (or ?v_37 ?v_38)) (and (and (and (and (and (and (and (and (and (and (and (and (and (and (and (and (and (and (and (and (and (and (and (and (and (and (and (and (and (and (and (and (and (and (and (and (and (and (and (and (and (and (and (and (and (and (and (and (and (and (and (and (and (and (and (<= 0 v0) (not (<= 16 v0))) (and (<= 0 v1) ?v_39)) (and (<= 0 v2) ?v_40)) (and (<= 0 v3) (not (<= 16 v3)))) (and (<= 0 v4) (not (<= 16 v4)))) (and (<= 0 v5) ?v_41)) (and (<= 0 o_0) (<= o_0 1))) (and (<= 0 ?v_42) (not (<= 16 ?v_42)))) (= (not (<= (+ A_itev10 v0) 16)) (= o_0 1))) (and (not (<= 8 s_2)) (<= 0 s_2))) (and (<= 0 ?v_43) (not (<= 2 ?v_43)))) (= (<= 1 s_2) (not (<= v3 2)))) (and (<= 0 o_1) (<= o_1 1))) (and (<= 0 ?v_44) (not (<= 16 ?v_44)))) (= (not (<= (+ ?v_45 A_itev8) 16)) (= o_1 1))) (and (not (<= 16 s_3)) (<= 0 s_3))) (and (<= s_3 v4) (not (<= 1 (- v4 s_3))))) (= (<= 1 s_3) (not (<= v4 1)))) (and (not (<= 32 s_4)) (<= 0 s_4))) (and (<= 0 ?v_46) (not (<= 1 ?v_46)))) (= (<= 1 s_4) (not (<= v5 0)))) (and (<= 0 o_2) (<= o_2 1))) (and (<= 0 ?v_48) (not (<= 1 ?v_48)))) (= (not (<= ?v_49 1)) (= o_2 1))) (and (<= 0 o_3) (<= o_3 1))) (and (<= 0 ?v_54) (not (<= 16 ?v_54)))) (= (not (<= (+ (+ ?v_55 A_itev8) A_itev10) 16)) (= o_3 1))) (and (<= 0 o_4) (<= o_4 1))) (and (<= 0 ?v_57) (not (<= 16 ?v_57)))) (= (not (<= (+ (+ ?v_58 A_itev8) A_itev10) 16)) (= o_4 1))) (and (<= 0 o_5) (<= o_5 1))) (and (<= 0 ?v_12) ?v_59)) (= (not (<= (+ A_itev2 v4) 16)) (= o_5 1))) (and (<= 0 o_6) (<= o_6 1))) (and (<= 0 ?v_60) (not (<= 16 ?v_60)))) (= (not (<= (+ A_itev4 v3) 16)) (= o_6 1))) (and (not (<= 2 s_7)) (<= 0 s_7))) (and (<= 0 ?v_62) (not (<= 8 ?v_62)))) (= (<= 1 s_7) (not (<= ?v_60 8)))) (and (<= 0 o_7) (<= o_7 1))) (and (<= 0 ?v_63) (not (<= 16 ?v_63)))) (= (not (<= (+ ?v_64 ?v_65) 16)) (= o_7 1))) (and (not (<= 2 s_8)) (<= 0 s_8))) (and (<= 0 ?v_67) (not (<= 8 ?v_67)))) (= (<= 1 s_8) (not (<= ?v_63 8)))) (and (<= 0 o_8) (<= o_8 1))) (and (<= 0 ?v_68) (not (<= 16 ?v_68)))) (= (not (<= (+ ?v_69 ?v_70) 16)) (= o_8 1))) (and (not (<= 2 s_9)) (<= 0 s_9))) (and (<= 0 ?v_72) (not (<= 8 ?v_72)))) (= (<= 1 s_9) (not (<= ?v_68 8)))) (and (<= 0 o_9) (<= o_9 1))) (and (<= 0 ?v_73) (not (<= 16 ?v_73)))) (= (not (<= (+ ?v_74 ?v_75) 16)) (= o_9 1))) (not (= (+ (+ (+ (+ (+ (+ (+ (+ (+ (+ (+ (+ (+ (+ (+ (+ (+ (+ (+ (+ ?v_76 (* o_6 128)) (* s_7 64)) (* v2 (- 4))) (* o_7 64)) (* s_8 32)) (* v1 (- 2))) (* o_8 32)) (* s_9 16)) (* o_9 16)) ?v_51) ?v_52) ?v_53) ?v_56) ?v_77) ?v_78) ?v_79) ?v_80) (* A_itev4 (- 8))) A_itev8) A_itev10) 0))))))))))))))))))))))))))))))
(check-sat)
(exit)
